(set-info :original "/var/folders/xz/sgqbj6yn0yv_1mpy6_jqympm0000gn/T/sea-VHS3TI/array17_pattern.pp.ms.o.bc")
(set-info :authors "SeaHorn v.0.1.0-rc3")
(declare-rel verifier.error (Bool Bool Bool ))
(declare-rel main@entry (Int Int ))
(declare-rel main@_bb (Int Int Int (Array Int Int) Int Int Int ))
(declare-rel main@_bb9 (Int Int Int (Array Int Int) Int Int ))
(declare-rel main@_bb16 (Int Int Int Int (Array Int Int) Int ))
(declare-rel main@verifier.error.split ())
(declare-rel main@_bb18 (Int Int Int Int Int (Array Int Int) Int ))
(declare-rel main@_bb5 (Int Int Int Int (Array Int Int) Int Int Int ))
(declare-var main@%_15_0 Int )
(declare-var main@%_16_0 Int )
(declare-var main@%_17_0 Int )
(declare-var main@%_12_0 Int )
(declare-var main@%_13_0 Bool )
(declare-var main@%_81_0 Int )
(declare-var main@%_82_0 Int )
(declare-var main@%_83_0 Int )
(declare-var main@%_84_0 Int )
(declare-var main@%_85_0 Int )
(declare-var main@%_78_0 Int )
(declare-var main@%_79_0 Bool )
(declare-var main@%_93_0 Bool )
(declare-var main@%_90_0 Bool )
(declare-var main@%_92_0 Bool )
(declare-var main@%_74_0 Int )
(declare-var main@%_75_0 Bool )
(declare-var main@%_60_0 Int )
(declare-var main@%_61_0 Int )
(declare-var main@%_62_0 Int )
(declare-var main@%_63_0 Int )
(declare-var main@%_64_0 Int )
(declare-var main@%_65_0 Int )
(declare-var main@%_66_0 Int )
(declare-var main@%_67_0 Int )
(declare-var main@%_68_0 Int )
(declare-var @__VERIFIER_nondet_int_0 Int )
(declare-var main@%_69_0 Int )
(declare-var main@%_70_0 Bool )
(declare-var main@%_49_0 Int )
(declare-var main@%_50_0 Int )
(declare-var main@%_51_0 Int )
(declare-var main@%_52_0 Int )
(declare-var main@%_53_0 Int )
(declare-var main@%_54_0 Int )
(declare-var main@%_55_0 Int )
(declare-var main@%_56_0 Int )
(declare-var main@%_42_0 Int )
(declare-var main@%_43_0 Int )
(declare-var main@%_44_0 Int )
(declare-var main@%_45_0 Int )
(declare-var main@%_46_0 Int )
(declare-var main@%_47_0 Bool )
(declare-var main@%_59_2 Int )
(declare-var main@%_34_0 Int )
(declare-var main@%_35_0 Int )
(declare-var main@%_36_0 Int )
(declare-var main@%_37_0 Int )
(declare-var main@%_38_0 Int )
(declare-var main@%_23_0 Int )
(declare-var main@%_25_0 Int )
(declare-var main@%_27_0 Bool )
(declare-var main@%_28_0 Bool )
(declare-var main@%..i_0 Bool )
(declare-var main@%_29_0 Bool )
(declare-var main@%_30_0 Bool )
(declare-var main@%_31_0 Bool )
(declare-var main@%_32_0 Bool )
(declare-var main@%_41_2 Int )
(declare-var main@%_8_0 Int )
(declare-var main@%_9_0 Bool )
(declare-var main@%_0_0 Int )
(declare-var main@%_2_0 Bool )
(declare-var main@%_3_0 Int )
(declare-var @__VERIFIER_nondet_short_0 Int )
(declare-var main@entry_0 Bool )
(declare-var main@%sm3_0 (Array Int Int) )
(declare-var main@%_1_0 Int )
(declare-var main@%_4_0 Int )
(declare-var main@%_6_0 Int )
(declare-var main@_bb_0 Bool )
(declare-var main@%shadow.mem.0.0_0 (Array Int Int) )
(declare-var main@%.01.i_0 Int )
(declare-var main@%shadow.mem.0.0_1 (Array Int Int) )
(declare-var main@%.01.i_1 Int )
(declare-var main@_bb8_0 Bool )
(declare-var main@_bb9_0 Bool )
(declare-var main@%shadow.mem.0.2_0 (Array Int Int) )
(declare-var main@%shadow.mem.0.2_1 (Array Int Int) )
(declare-var main@_bb4_0 Bool )
(declare-var main@_bb5_0 Bool )
(declare-var main@%shadow.mem.0.1_0 (Array Int Int) )
(declare-var main@%.03.i_0 Int )
(declare-var main@%shadow.mem.0.1_1 (Array Int Int) )
(declare-var main@%.03.i_1 Int )
(declare-var main@%_24_0 Int )
(declare-var main@%_26_0 Int )
(declare-var main@_bb10_0 Bool )
(declare-var main@%_39_0 Int )
(declare-var main@_bb11_0 Bool )
(declare-var |tuple(main@_bb9_0, main@_bb11_0)| Bool )
(declare-var main@%_41_0 Int )
(declare-var main@%_41_1 Int )
(declare-var main@%sm1_0 (Array Int Int) )
(declare-var main@_bb12_0 Bool )
(declare-var main@%_57_0 Int )
(declare-var main@_bb13_0 Bool )
(declare-var |tuple(main@_bb11_0, main@_bb13_0)| Bool )
(declare-var main@%_59_0 Int )
(declare-var main@%_59_1 Int )
(declare-var main@%sm2_0 (Array Int Int) )
(declare-var main@_bb14_0 Bool )
(declare-var main@_bb9_1 Bool )
(declare-var main@%shadow.mem.0.2_2 (Array Int Int) )
(declare-var main@_bb15_0 Bool )
(declare-var main@_bb16_0 Bool )
(declare-var main@%.12.i_0 Int )
(declare-var main@%.0.i_0 Int )
(declare-var main@%.12.i_1 Int )
(declare-var main@%.0.i_1 Int )
(declare-var main@orig.main.exit_0 Bool )
(declare-var main@%_91_0 Int )
(declare-var main@precall_0 Bool )
(declare-var main@__VERIFIER_assert_0 Bool )
(declare-var main@_bb21_0 Bool )
(declare-var main@verifier.error_0 Bool )
(declare-var main@verifier.error.split_0 Bool )
(declare-var main@_bb17_0 Bool )
(declare-var main@_bb18_0 Bool )
(declare-var main@%.14.i_0 Int )
(declare-var main@%.1.i_0 Int )
(declare-var main@%.14.i_1 Int )
(declare-var main@%.1.i_1 Int )
(declare-var main@_bb20_0 Bool )
(declare-var main@%_89_0 Int )
(declare-var main@%.12.i_2 Int )
(declare-var main@_bb19_0 Bool )
(declare-var main@%_86_0 Int )
(declare-var main@%_87_0 Int )
(declare-var main@_bb18_1 Bool )
(declare-var main@%.14.i_2 Int )
(declare-var main@%.1.i_2 Int )
(declare-var main@_bb7_0 Bool )
(declare-var main@%_20_0 Int )
(declare-var main@%.01.i_2 Int )
(declare-var main@_bb6_0 Bool )
(declare-var main@%sm_0 (Array Int Int) )
(declare-var main@%_18_0 Int )
(declare-var main@_bb5_1 Bool )
(declare-var main@%shadow.mem.0.1_2 (Array Int Int) )
(declare-var main@%.03.i_2 Int )
(rule (verifier.error false false false))
(rule (verifier.error false true true))
(rule (verifier.error true false true))
(rule (verifier.error true true true))
(rule (main@entry @__VERIFIER_nondet_int_0 @__VERIFIER_nondet_short_0))
(rule (=> (and (main@entry @__VERIFIER_nondet_int_0 @__VERIFIER_nondet_short_0)
         true
         (= main@%_0_0 @__VERIFIER_nondet_short_0)
         (= main@%_2_0 (> main@%_1_0 0))
         main@%_2_0
         (= main@%_3_0 main@%_1_0)
         (= main@%_4_0 main@%_1_0)
         (> main@%_6_0 0)
         (=> main@_bb_0 (and main@_bb_0 main@entry_0))
         (=> (and main@_bb_0 main@entry_0)
             (= main@%shadow.mem.0.0_0 main@%sm3_0))
         (=> (and main@_bb_0 main@entry_0) (= main@%.01.i_0 0))
         (=> (and main@_bb_0 main@entry_0)
             (= main@%shadow.mem.0.0_1 main@%shadow.mem.0.0_0))
         (=> (and main@_bb_0 main@entry_0) (= main@%.01.i_1 main@%.01.i_0))
         main@_bb_0)
    (main@_bb main@%.01.i_1
              main@%_4_0
              main@%_6_0
              main@%shadow.mem.0.0_1
              main@%_1_0
              @__VERIFIER_nondet_int_0
              @__VERIFIER_nondet_short_0)))
(rule (=> (and (main@_bb main@%.01.i_0
                   main@%_4_0
                   main@%_6_0
                   main@%shadow.mem.0.0_0
                   main@%_1_0
                   @__VERIFIER_nondet_int_0
                   @__VERIFIER_nondet_short_0)
         true
         (= main@%_8_0 main@%_1_0)
         (= main@%_9_0 (< main@%.01.i_0 main@%_8_0))
         (=> main@_bb8_0 (and main@_bb8_0 main@_bb_0))
         (=> (and main@_bb8_0 main@_bb_0) (not main@%_9_0))
         (=> main@_bb9_0 (and main@_bb9_0 main@_bb8_0))
         (=> (and main@_bb9_0 main@_bb8_0)
             (= main@%shadow.mem.0.2_0 main@%shadow.mem.0.0_0))
         (=> (and main@_bb9_0 main@_bb8_0)
             (= main@%shadow.mem.0.2_1 main@%shadow.mem.0.2_0))
         main@_bb9_0)
    (main@_bb9 main@%_4_0
               main@%_6_0
               main@%_1_0
               main@%shadow.mem.0.2_1
               @__VERIFIER_nondet_int_0
               @__VERIFIER_nondet_short_0)))
(rule (=> (and (main@_bb main@%.01.i_0
                   main@%_4_0
                   main@%_6_0
                   main@%shadow.mem.0.0_0
                   main@%_1_0
                   @__VERIFIER_nondet_int_0
                   @__VERIFIER_nondet_short_0)
         true
         (= main@%_8_0 main@%_1_0)
         (= main@%_9_0 (< main@%.01.i_0 main@%_8_0))
         (=> main@_bb4_0 (and main@_bb4_0 main@_bb_0))
         (=> (and main@_bb4_0 main@_bb_0) main@%_9_0)
         (=> main@_bb5_0 (and main@_bb5_0 main@_bb4_0))
         (=> (and main@_bb5_0 main@_bb4_0)
             (= main@%shadow.mem.0.1_0 main@%shadow.mem.0.0_0))
         (=> (and main@_bb5_0 main@_bb4_0) (= main@%.03.i_0 0))
         (=> (and main@_bb5_0 main@_bb4_0)
             (= main@%shadow.mem.0.1_1 main@%shadow.mem.0.1_0))
         (=> (and main@_bb5_0 main@_bb4_0) (= main@%.03.i_1 main@%.03.i_0))
         main@_bb5_0)
    (main@_bb5 main@%.01.i_0
               main@%_4_0
               main@%_6_0
               main@%.03.i_1
               main@%shadow.mem.0.1_1
               main@%_1_0
               @__VERIFIER_nondet_int_0
               @__VERIFIER_nondet_short_0)))
(rule (let ((a!1 (=> main@_bb10_0 (= main@%_36_0 (+ main@%_6_0 (* main@%_35_0 4)))))
      (a!2 (=> main@_bb10_0 (= main@%_38_0 (+ main@%_36_0 (* main@%_37_0 4)))))
      (a!3 (=> main@_bb11_0 (= main@%_44_0 (+ main@%_6_0 (* main@%_43_0 4)))))
      (a!4 (=> main@_bb11_0 (= main@%_46_0 (+ main@%_44_0 (* main@%_45_0 4)))))
      (a!5 (=> main@_bb12_0 (= main@%_51_0 (+ main@%_6_0 (* main@%_50_0 4)))))
      (a!6 (=> main@_bb12_0 (= main@%_56_0 (+ main@%_51_0 (* main@%_55_0 4)))))
      (a!7 (=> main@_bb13_0 (= main@%_62_0 (+ main@%_6_0 (* main@%_61_0 4)))))
      (a!8 (=> main@_bb13_0 (= main@%_67_0 (+ main@%_62_0 (* main@%_66_0 4))))))
(let ((a!9 (and (main@_bb9 main@%_4_0
                           main@%_6_0
                           main@%_1_0
                           main@%shadow.mem.0.2_0
                           @__VERIFIER_nondet_int_0
                           @__VERIFIER_nondet_short_0)
                true
                (= main@%_23_0 @__VERIFIER_nondet_short_0)
                (= main@%_25_0 @__VERIFIER_nondet_short_0)
                (= main@%_27_0 (> main@%_24_0 (- 1)))
                (= main@%_28_0 (< main@%_24_0 main@%_1_0))
                (= main@%..i_0 (and main@%_27_0 main@%_28_0))
                main@%..i_0
                (= main@%_29_0 (> main@%_26_0 (- 1)))
                (= main@%_30_0 (< main@%_26_0 main@%_1_0))
                (= main@%_31_0 (and main@%_29_0 main@%_30_0))
                main@%_31_0
                (= main@%_32_0 (= main@%_24_0 main@%_26_0))
                (=> main@_bb10_0 (and main@_bb10_0 main@_bb9_0))
                (=> (and main@_bb10_0 main@_bb9_0) (not main@%_32_0))
                (=> main@_bb10_0 (= main@%_34_0 main@%_24_0))
                a!1
                (=> main@_bb10_0 (or (<= main@%_6_0 0) (> main@%_36_0 0)))
                (=> main@_bb10_0 (= main@%_37_0 main@%_26_0))
                a!2
                (=> main@_bb10_0 (or (<= main@%_36_0 0) (> main@%_38_0 0)))
                (=> main@_bb10_0 (> main@%_36_0 0))
                (=> main@_bb10_0
                    (= main@%_39_0 (select main@%shadow.mem.0.2_0 main@%_38_0)))
                (=> |tuple(main@_bb9_0, main@_bb11_0)| main@_bb9_0)
                (=> main@_bb11_0
                    (or (and main@_bb11_0 main@_bb10_0)
                        |tuple(main@_bb9_0, main@_bb11_0)|))
                (=> |tuple(main@_bb9_0, main@_bb11_0)| main@%_32_0)
                (=> (and main@_bb11_0 main@_bb10_0) (= main@%_41_0 main@%_39_0))
                (=> |tuple(main@_bb9_0, main@_bb11_0)| (= main@%_41_1 (- 1)))
                (=> (and main@_bb11_0 main@_bb10_0) (= main@%_41_2 main@%_41_0))
                (=> |tuple(main@_bb9_0, main@_bb11_0)|
                    (= main@%_41_2 main@%_41_1))
                (=> main@_bb11_0 (= main@%_42_0 main@%_24_0))
                a!3
                (=> main@_bb11_0 (or (<= main@%_6_0 0) (> main@%_44_0 0)))
                (=> main@_bb11_0 (= main@%_45_0 main@%_26_0))
                a!4
                (=> main@_bb11_0 (or (<= main@%_44_0 0) (> main@%_46_0 0)))
                (=> main@_bb11_0 (> main@%_44_0 0))
                (=> main@_bb11_0
                    (= main@%sm1_0
                       (store main@%shadow.mem.0.2_0 main@%_46_0 main@%_41_2)))
                (=> main@_bb11_0 (= main@%_47_0 (= main@%_24_0 main@%_26_0)))
                (=> main@_bb12_0 (and main@_bb12_0 main@_bb11_0))
                (=> (and main@_bb12_0 main@_bb11_0) (not main@%_47_0))
                (=> main@_bb12_0 (= main@%_49_0 main@%_24_0))
                a!5
                (=> main@_bb12_0 (or (<= main@%_6_0 0) (> main@%_51_0 0)))
                (=> main@_bb12_0 (= main@%_52_0 main@%_1_0))
                (=> main@_bb12_0 (= main@%_53_0 (+ main@%_52_0 (- 1))))
                (=> main@_bb12_0 (= main@%_54_0 main@%_26_0))
                (=> main@_bb12_0 (= main@%_55_0 (- main@%_53_0 main@%_54_0)))
                a!6
                (=> main@_bb12_0 (or (<= main@%_51_0 0) (> main@%_56_0 0)))
                (=> main@_bb12_0 (> main@%_51_0 0))
                (=> main@_bb12_0
                    (= main@%_57_0 (select main@%sm1_0 main@%_56_0)))
                (=> |tuple(main@_bb11_0, main@_bb13_0)| main@_bb11_0)
                (=> main@_bb13_0
                    (or (and main@_bb13_0 main@_bb12_0)
                        |tuple(main@_bb11_0, main@_bb13_0)|))
                (=> |tuple(main@_bb11_0, main@_bb13_0)| main@%_47_0)
                (=> (and main@_bb13_0 main@_bb12_0) (= main@%_59_0 main@%_57_0))
                (=> |tuple(main@_bb11_0, main@_bb13_0)| (= main@%_59_1 1))
                (=> (and main@_bb13_0 main@_bb12_0) (= main@%_59_2 main@%_59_0))
                (=> |tuple(main@_bb11_0, main@_bb13_0)|
                    (= main@%_59_2 main@%_59_1))
                (=> main@_bb13_0 (= main@%_60_0 main@%_24_0))
                a!7
                (=> main@_bb13_0 (or (<= main@%_6_0 0) (> main@%_62_0 0)))
                (=> main@_bb13_0 (= main@%_63_0 main@%_1_0))
                (=> main@_bb13_0 (= main@%_64_0 (+ main@%_63_0 (- 1))))
                (=> main@_bb13_0 (= main@%_65_0 main@%_26_0))
                (=> main@_bb13_0 (= main@%_66_0 (- main@%_64_0 main@%_65_0)))
                a!8
                (=> main@_bb13_0 (or (<= main@%_62_0 0) (> main@%_67_0 0)))
                (=> main@_bb13_0 (> main@%_62_0 0))
                (=> main@_bb13_0
                    (= main@%sm2_0 (store main@%sm1_0 main@%_67_0 main@%_59_2)))
                (=> main@_bb13_0 (= main@%_68_0 @__VERIFIER_nondet_int_0))
                (=> main@_bb13_0 (= main@%_70_0 (= main@%_69_0 0)))
                (=> main@_bb14_0 (and main@_bb14_0 main@_bb13_0))
                (=> (and main@_bb14_0 main@_bb13_0) (not main@%_70_0))
                (=> main@_bb9_1 (and main@_bb9_1 main@_bb14_0))
                (=> (and main@_bb9_1 main@_bb14_0)
                    (= main@%shadow.mem.0.2_1 main@%sm2_0))
                (=> (and main@_bb9_1 main@_bb14_0)
                    (= main@%shadow.mem.0.2_2 main@%shadow.mem.0.2_1))
                main@_bb9_1)))
  (=> a!9
      (main@_bb9 main@%_4_0
                 main@%_6_0
                 main@%_1_0
                 main@%shadow.mem.0.2_2
                 @__VERIFIER_nondet_int_0
                 @__VERIFIER_nondet_short_0)))))
(rule (let ((a!1 (=> main@_bb10_0 (= main@%_36_0 (+ main@%_6_0 (* main@%_35_0 4)))))
      (a!2 (=> main@_bb10_0 (= main@%_38_0 (+ main@%_36_0 (* main@%_37_0 4)))))
      (a!3 (=> main@_bb11_0 (= main@%_44_0 (+ main@%_6_0 (* main@%_43_0 4)))))
      (a!4 (=> main@_bb11_0 (= main@%_46_0 (+ main@%_44_0 (* main@%_45_0 4)))))
      (a!5 (=> main@_bb12_0 (= main@%_51_0 (+ main@%_6_0 (* main@%_50_0 4)))))
      (a!6 (=> main@_bb12_0 (= main@%_56_0 (+ main@%_51_0 (* main@%_55_0 4)))))
      (a!7 (=> main@_bb13_0 (= main@%_62_0 (+ main@%_6_0 (* main@%_61_0 4)))))
      (a!8 (=> main@_bb13_0 (= main@%_67_0 (+ main@%_62_0 (* main@%_66_0 4))))))
(let ((a!9 (and (main@_bb9 main@%_4_0
                           main@%_6_0
                           main@%_1_0
                           main@%shadow.mem.0.2_0
                           @__VERIFIER_nondet_int_0
                           @__VERIFIER_nondet_short_0)
                true
                (= main@%_23_0 @__VERIFIER_nondet_short_0)
                (= main@%_25_0 @__VERIFIER_nondet_short_0)
                (= main@%_27_0 (> main@%_24_0 (- 1)))
                (= main@%_28_0 (< main@%_24_0 main@%_1_0))
                (= main@%..i_0 (and main@%_27_0 main@%_28_0))
                main@%..i_0
                (= main@%_29_0 (> main@%_26_0 (- 1)))
                (= main@%_30_0 (< main@%_26_0 main@%_1_0))
                (= main@%_31_0 (and main@%_29_0 main@%_30_0))
                main@%_31_0
                (= main@%_32_0 (= main@%_24_0 main@%_26_0))
                (=> main@_bb10_0 (and main@_bb10_0 main@_bb9_0))
                (=> (and main@_bb10_0 main@_bb9_0) (not main@%_32_0))
                (=> main@_bb10_0 (= main@%_34_0 main@%_24_0))
                a!1
                (=> main@_bb10_0 (or (<= main@%_6_0 0) (> main@%_36_0 0)))
                (=> main@_bb10_0 (= main@%_37_0 main@%_26_0))
                a!2
                (=> main@_bb10_0 (or (<= main@%_36_0 0) (> main@%_38_0 0)))
                (=> main@_bb10_0 (> main@%_36_0 0))
                (=> main@_bb10_0
                    (= main@%_39_0 (select main@%shadow.mem.0.2_0 main@%_38_0)))
                (=> |tuple(main@_bb9_0, main@_bb11_0)| main@_bb9_0)
                (=> main@_bb11_0
                    (or (and main@_bb11_0 main@_bb10_0)
                        |tuple(main@_bb9_0, main@_bb11_0)|))
                (=> |tuple(main@_bb9_0, main@_bb11_0)| main@%_32_0)
                (=> (and main@_bb11_0 main@_bb10_0) (= main@%_41_0 main@%_39_0))
                (=> |tuple(main@_bb9_0, main@_bb11_0)| (= main@%_41_1 (- 1)))
                (=> (and main@_bb11_0 main@_bb10_0) (= main@%_41_2 main@%_41_0))
                (=> |tuple(main@_bb9_0, main@_bb11_0)|
                    (= main@%_41_2 main@%_41_1))
                (=> main@_bb11_0 (= main@%_42_0 main@%_24_0))
                a!3
                (=> main@_bb11_0 (or (<= main@%_6_0 0) (> main@%_44_0 0)))
                (=> main@_bb11_0 (= main@%_45_0 main@%_26_0))
                a!4
                (=> main@_bb11_0 (or (<= main@%_44_0 0) (> main@%_46_0 0)))
                (=> main@_bb11_0 (> main@%_44_0 0))
                (=> main@_bb11_0
                    (= main@%sm1_0
                       (store main@%shadow.mem.0.2_0 main@%_46_0 main@%_41_2)))
                (=> main@_bb11_0 (= main@%_47_0 (= main@%_24_0 main@%_26_0)))
                (=> main@_bb12_0 (and main@_bb12_0 main@_bb11_0))
                (=> (and main@_bb12_0 main@_bb11_0) (not main@%_47_0))
                (=> main@_bb12_0 (= main@%_49_0 main@%_24_0))
                a!5
                (=> main@_bb12_0 (or (<= main@%_6_0 0) (> main@%_51_0 0)))
                (=> main@_bb12_0 (= main@%_52_0 main@%_1_0))
                (=> main@_bb12_0 (= main@%_53_0 (+ main@%_52_0 (- 1))))
                (=> main@_bb12_0 (= main@%_54_0 main@%_26_0))
                (=> main@_bb12_0 (= main@%_55_0 (- main@%_53_0 main@%_54_0)))
                a!6
                (=> main@_bb12_0 (or (<= main@%_51_0 0) (> main@%_56_0 0)))
                (=> main@_bb12_0 (> main@%_51_0 0))
                (=> main@_bb12_0
                    (= main@%_57_0 (select main@%sm1_0 main@%_56_0)))
                (=> |tuple(main@_bb11_0, main@_bb13_0)| main@_bb11_0)
                (=> main@_bb13_0
                    (or (and main@_bb13_0 main@_bb12_0)
                        |tuple(main@_bb11_0, main@_bb13_0)|))
                (=> |tuple(main@_bb11_0, main@_bb13_0)| main@%_47_0)
                (=> (and main@_bb13_0 main@_bb12_0) (= main@%_59_0 main@%_57_0))
                (=> |tuple(main@_bb11_0, main@_bb13_0)| (= main@%_59_1 1))
                (=> (and main@_bb13_0 main@_bb12_0) (= main@%_59_2 main@%_59_0))
                (=> |tuple(main@_bb11_0, main@_bb13_0)|
                    (= main@%_59_2 main@%_59_1))
                (=> main@_bb13_0 (= main@%_60_0 main@%_24_0))
                a!7
                (=> main@_bb13_0 (or (<= main@%_6_0 0) (> main@%_62_0 0)))
                (=> main@_bb13_0 (= main@%_63_0 main@%_1_0))
                (=> main@_bb13_0 (= main@%_64_0 (+ main@%_63_0 (- 1))))
                (=> main@_bb13_0 (= main@%_65_0 main@%_26_0))
                (=> main@_bb13_0 (= main@%_66_0 (- main@%_64_0 main@%_65_0)))
                a!8
                (=> main@_bb13_0 (or (<= main@%_62_0 0) (> main@%_67_0 0)))
                (=> main@_bb13_0 (> main@%_62_0 0))
                (=> main@_bb13_0
                    (= main@%sm2_0 (store main@%sm1_0 main@%_67_0 main@%_59_2)))
                (=> main@_bb13_0 (= main@%_68_0 @__VERIFIER_nondet_int_0))
                (=> main@_bb13_0 (= main@%_70_0 (= main@%_69_0 0)))
                (=> main@_bb15_0 (and main@_bb15_0 main@_bb13_0))
                (=> (and main@_bb15_0 main@_bb13_0) main@%_70_0)
                (=> main@_bb16_0 (and main@_bb16_0 main@_bb15_0))
                (=> (and main@_bb16_0 main@_bb15_0) (= main@%.12.i_0 0))
                (=> (and main@_bb16_0 main@_bb15_0) (= main@%.0.i_0 0))
                (=> (and main@_bb16_0 main@_bb15_0)
                    (= main@%.12.i_1 main@%.12.i_0))
                (=> (and main@_bb16_0 main@_bb15_0)
                    (= main@%.0.i_1 main@%.0.i_0))
                main@_bb16_0)))
  (=> a!9
      (main@_bb16 main@%_4_0
                  main@%_6_0
                  main@%_1_0
                  main@%.12.i_1
                  main@%sm2_0
                  main@%.0.i_1)))))
(rule (let ((a!1 (=> main@orig.main.exit_0
               (= main@%_90_0
                  (ite (>= main@%.0.i_0 0) (< main@%.0.i_0 2) false)))))
(let ((a!2 (and (main@_bb16 main@%_4_0
                            main@%_6_0
                            main@%_1_0
                            main@%.12.i_0
                            main@%sm2_0
                            main@%.0.i_0)
                true
                (= main@%_74_0 main@%_1_0)
                (= main@%_75_0 (< main@%.12.i_0 main@%_74_0))
                (=> main@orig.main.exit_0
                    (and main@orig.main.exit_0 main@_bb16_0))
                (=> (and main@orig.main.exit_0 main@_bb16_0) (not main@%_75_0))
                a!1
                (=> main@orig.main.exit_0 (= main@%_91_0 (ite main@%_90_0 1 0)))
                (=> main@orig.main.exit_0 (not main@%_92_0))
                (=> main@precall_0 (and main@precall_0 main@orig.main.exit_0))
                (=> main@__VERIFIER_assert_0
                    (and main@__VERIFIER_assert_0 main@precall_0))
                (=> main@__VERIFIER_assert_0 (= main@%_93_0 (= main@%_91_0 0)))
                (=> main@__VERIFIER_assert_0 main@%_93_0)
                (=> main@_bb21_0 (and main@_bb21_0 main@__VERIFIER_assert_0))
                (=> main@verifier.error_0
                    (and main@verifier.error_0 main@_bb21_0))
                (=> main@verifier.error.split_0
                    (and main@verifier.error.split_0 main@verifier.error_0))
                main@verifier.error.split_0)))
  (=> a!2 main@verifier.error.split))))
(rule (=> (and (main@_bb16 main@%_4_0
                     main@%_6_0
                     main@%_1_0
                     main@%.12.i_0
                     main@%sm2_0
                     main@%.0.i_0)
         true
         (= main@%_74_0 main@%_1_0)
         (= main@%_75_0 (< main@%.12.i_0 main@%_74_0))
         (=> main@_bb17_0 (and main@_bb17_0 main@_bb16_0))
         (=> (and main@_bb17_0 main@_bb16_0) main@%_75_0)
         (=> main@_bb18_0 (and main@_bb18_0 main@_bb17_0))
         (=> (and main@_bb18_0 main@_bb17_0) (= main@%.14.i_0 0))
         (=> (and main@_bb18_0 main@_bb17_0) (= main@%.1.i_0 main@%.0.i_0))
         (=> (and main@_bb18_0 main@_bb17_0) (= main@%.14.i_1 main@%.14.i_0))
         (=> (and main@_bb18_0 main@_bb17_0) (= main@%.1.i_1 main@%.1.i_0))
         main@_bb18_0)
    (main@_bb18 main@%_4_0
                main@%_6_0
                main@%_1_0
                main@%.12.i_0
                main@%.14.i_1
                main@%sm2_0
                main@%.1.i_1)))
(rule (let ((a!1 (and (main@_bb18 main@%_4_0
                            main@%_6_0
                            main@%_1_0
                            main@%.12.i_0
                            main@%.14.i_0
                            main@%sm2_0
                            main@%.1.i_0)
                true
                (= main@%_78_0 main@%_1_0)
                (= main@%_79_0 (< main@%.14.i_0 main@%_78_0))
                (=> main@_bb20_0 (and main@_bb20_0 main@_bb18_0))
                (=> (and main@_bb20_0 main@_bb18_0) (not main@%_79_0))
                (=> main@_bb20_0 (= main@%_89_0 (+ main@%.12.i_0 1)))
                (=> main@_bb16_0 (and main@_bb16_0 main@_bb20_0))
                (=> (and main@_bb16_0 main@_bb20_0)
                    (= main@%.12.i_1 main@%_89_0))
                (=> (and main@_bb16_0 main@_bb20_0)
                    (= main@%.0.i_0 main@%.1.i_0))
                (=> (and main@_bb16_0 main@_bb20_0)
                    (= main@%.12.i_2 main@%.12.i_1))
                (=> (and main@_bb16_0 main@_bb20_0)
                    (= main@%.0.i_1 main@%.0.i_0))
                main@_bb16_0)))
  (=> a!1
      (main@_bb16 main@%_4_0
                  main@%_6_0
                  main@%_1_0
                  main@%.12.i_2
                  main@%sm2_0
                  main@%.0.i_1))))
(rule (let ((a!1 (=> main@_bb19_0 (= main@%_82_0 (+ main@%_6_0 (* main@%_81_0 4)))))
      (a!2 (=> main@_bb19_0 (= main@%_83_0 (+ main@%_82_0 (* main@%.14.i_0 4))))))
(let ((a!3 (and (main@_bb18 main@%_4_0
                            main@%_6_0
                            main@%_1_0
                            main@%.12.i_0
                            main@%.14.i_0
                            main@%sm2_0
                            main@%.1.i_0)
                true
                (= main@%_78_0 main@%_1_0)
                (= main@%_79_0 (< main@%.14.i_0 main@%_78_0))
                (=> main@_bb19_0 (and main@_bb19_0 main@_bb18_0))
                (=> (and main@_bb19_0 main@_bb18_0) main@%_79_0)
                a!1
                (=> main@_bb19_0 (or (<= main@%_6_0 0) (> main@%_82_0 0)))
                a!2
                (=> main@_bb19_0 (or (<= main@%_82_0 0) (> main@%_83_0 0)))
                (=> main@_bb19_0 (> main@%_82_0 0))
                (=> main@_bb19_0
                    (= main@%_84_0 (select main@%sm2_0 main@%_83_0)))
                (=> main@_bb19_0 (= main@%_85_0 main@%_84_0))
                (=> main@_bb19_0 (= main@%_86_0 (+ main@%.1.i_0 main@%_85_0)))
                (=> main@_bb19_0 (= main@%_87_0 (+ main@%.14.i_0 1)))
                (=> main@_bb18_1 (and main@_bb18_1 main@_bb19_0))
                (=> (and main@_bb18_1 main@_bb19_0)
                    (= main@%.14.i_1 main@%_87_0))
                (=> (and main@_bb18_1 main@_bb19_0)
                    (= main@%.1.i_1 main@%_86_0))
                (=> (and main@_bb18_1 main@_bb19_0)
                    (= main@%.14.i_2 main@%.14.i_1))
                (=> (and main@_bb18_1 main@_bb19_0)
                    (= main@%.1.i_2 main@%.1.i_1))
                main@_bb18_1)))
  (=> a!3
      (main@_bb18 main@%_4_0
                  main@%_6_0
                  main@%_1_0
                  main@%.12.i_0
                  main@%.14.i_2
                  main@%sm2_0
                  main@%.1.i_2)))))
(rule (let ((a!1 (and (main@_bb5 main@%.01.i_0
                           main@%_4_0
                           main@%_6_0
                           main@%.03.i_0
                           main@%shadow.mem.0.1_0
                           main@%_1_0
                           @__VERIFIER_nondet_int_0
                           @__VERIFIER_nondet_short_0)
                true
                (= main@%_12_0 main@%_1_0)
                (= main@%_13_0 (< main@%.03.i_0 main@%_12_0))
                (=> main@_bb7_0 (and main@_bb7_0 main@_bb5_0))
                (=> (and main@_bb7_0 main@_bb5_0) (not main@%_13_0))
                (=> main@_bb7_0 (= main@%_20_0 (+ main@%.01.i_0 1)))
                (=> main@_bb_0 (and main@_bb_0 main@_bb7_0))
                (=> (and main@_bb_0 main@_bb7_0)
                    (= main@%shadow.mem.0.0_0 main@%shadow.mem.0.1_0))
                (=> (and main@_bb_0 main@_bb7_0) (= main@%.01.i_1 main@%_20_0))
                (=> (and main@_bb_0 main@_bb7_0)
                    (= main@%shadow.mem.0.0_1 main@%shadow.mem.0.0_0))
                (=> (and main@_bb_0 main@_bb7_0)
                    (= main@%.01.i_2 main@%.01.i_1))
                main@_bb_0)))
  (=> a!1
      (main@_bb main@%.01.i_2
                main@%_4_0
                main@%_6_0
                main@%shadow.mem.0.0_1
                main@%_1_0
                @__VERIFIER_nondet_int_0
                @__VERIFIER_nondet_short_0))))
(rule (let ((a!1 (=> main@_bb6_0 (= main@%_16_0 (+ main@%_6_0 (* main@%_15_0 4)))))
      (a!2 (=> main@_bb6_0 (= main@%_17_0 (+ main@%_16_0 (* main@%.03.i_0 4))))))
(let ((a!3 (and (main@_bb5 main@%.01.i_0
                           main@%_4_0
                           main@%_6_0
                           main@%.03.i_0
                           main@%shadow.mem.0.1_0
                           main@%_1_0
                           @__VERIFIER_nondet_int_0
                           @__VERIFIER_nondet_short_0)
                true
                (= main@%_12_0 main@%_1_0)
                (= main@%_13_0 (< main@%.03.i_0 main@%_12_0))
                (=> main@_bb6_0 (and main@_bb6_0 main@_bb5_0))
                (=> (and main@_bb6_0 main@_bb5_0) main@%_13_0)
                a!1
                (=> main@_bb6_0 (or (<= main@%_6_0 0) (> main@%_16_0 0)))
                a!2
                (=> main@_bb6_0 (or (<= main@%_16_0 0) (> main@%_17_0 0)))
                (=> main@_bb6_0 (> main@%_16_0 0))
                (=> main@_bb6_0
                    (= main@%sm_0 (store main@%shadow.mem.0.1_0 main@%_17_0 0)))
                (=> main@_bb6_0 (= main@%_18_0 (+ main@%.03.i_0 1)))
                (=> main@_bb5_1 (and main@_bb5_1 main@_bb6_0))
                (=> (and main@_bb5_1 main@_bb6_0)
                    (= main@%shadow.mem.0.1_1 main@%sm_0))
                (=> (and main@_bb5_1 main@_bb6_0) (= main@%.03.i_1 main@%_18_0))
                (=> (and main@_bb5_1 main@_bb6_0)
                    (= main@%shadow.mem.0.1_2 main@%shadow.mem.0.1_1))
                (=> (and main@_bb5_1 main@_bb6_0)
                    (= main@%.03.i_2 main@%.03.i_1))
                main@_bb5_1)))
  (=> a!3
      (main@_bb5 main@%.01.i_0
                 main@%_4_0
                 main@%_6_0
                 main@%.03.i_2
                 main@%shadow.mem.0.1_2
                 main@%_1_0
                 @__VERIFIER_nondet_int_0
                 @__VERIFIER_nondet_short_0)))))
(query main@verifier.error.split)

